robust/generate/spp_dkp_Lefebvre_et_al_2026/src/shortest_path_2_6.mps
* Signature: 0x319185d70671b953
NAME sp_2_6
ROWS
 N  OBJ
 E  flow_cons_source
 E  flow_cons_target
 L  primal_lower
 L  mccormick1[0,1]
 L  mccormick1[1,0]
 L  mccormick2[0,1]
 L  mccormick2[1,0]
 G  mccormick3[0,1]
 G  mccormick3[1,0]
COLUMNS
    MARKER    'MARKER'                 'INTORG'
    y[0,1]    OBJ       62.27
    y[0,1]    flow_cons_source  1
    y[0,1]    flow_cons_target  1
    y[0,1]    primal_lower  -0.45
    y[0,1]    mccormick2[0,1]  -1
    y[0,1]    mccormick3[0,1]  -1
    y[1,0]    OBJ       62.27
    y[1,0]    flow_cons_source  -1
    y[1,0]    flow_cons_target  -1
    y[1,0]    primal_lower  -22.74
    y[1,0]    mccormick2[1,0]  -1
    y[1,0]    mccormick3[1,0]  -1
    u[0,1]    primal_lower  51
    u[0,1]    mccormick1[0,1]  -1
    u[0,1]    mccormick3[0,1]  -1
    u[1,0]    primal_lower  25
    u[1,0]    mccormick1[1,0]  -1
    u[1,0]    mccormick3[1,0]  -1
    r[0,1]    OBJ       6.227
    r[0,1]    mccormick1[0,1]  1
    r[0,1]    mccormick2[0,1]  1
    r[0,1]    mccormick3[0,1]  1
    r[1,0]    OBJ       6.227
    r[1,0]    mccormick1[1,0]  1
    r[1,0]    mccormick2[1,0]  1
    r[1,0]    mccormick3[1,0]  1
    MARKER    'MARKER'                 'INTEND'
RHS
    RHS1      flow_cons_source  1
    RHS1      flow_cons_target  1
    RHS1      primal_lower  51
    RHS1      mccormick3[0,1]  -1
    RHS1      mccormick3[1,0]  -1
BOUNDS
 BV BND1      y[0,1]  
 BV BND1      y[1,0]  
 BV BND1      u[0,1]  
 BV BND1      u[1,0]  
 BV BND1      r[0,1]  
 BV BND1      r[1,0]  
ENDATA
