robust/generate/spp_dkp_Lefebvre_et_al_2026/src/shortest_path_2_6.kp
48
51

[0.45 22.74]

[51 25]
